DIMENSION :19
NODE_COORD_SECTION
1 37.13655008607634 78.23023007105562
2 94.43878792075031 70.0361867067378
3 6.972840385118275 99.40966696668531
4 -36.868054214542155 10.90324675155398
5 95.57406159953086 96.5786374068237
6 -2.960713125362062 67.74965941603602
7 43.08918037509116 67.408371913065
8 79.23133566519698 63.061255137769535
9 -55.44303885068045 -59.513877744742395
10 92.96347583406708 -44.66812914585876
11 -90.89023520795799 40.935712358399826
12 -12.064870686947103 -92.73381278998805
13 7.966129488727972 -21.821995527206056
14 49.46429873727632 -76.52343661738394
15 -75.91550213454667 60.549351995746775
16 44.09437688450174 -19.93221113058989
17 82.95187767108948 -65.33996791010854
18 97.37654857582686 2.2925043535074963
19 91.83298127327171 71.78886664599858
EOF
